instances/montreal.gr
c Largest connected component from MONTREALGANG.csv (29/36 vertices)
p tw 29 75
2 1
3 2
6 1
6 2
6 4
7 2
7 6
8 2
8 6
9 2
9 6
9 8
10 2
10 6
10 9
12 2
12 6
13 1
13 6
13 12
14 2
14 6
14 9
14 11
14 13
15 2
15 6
15 14
16 2
16 13
16 14
16 15
17 1
17 2
17 4
17 6
17 9
17 11
17 13
17 15
17 16
18 2
18 6
18 17
19 2
19 6
19 17
21 9
23 6
23 11
23 14
23 16
23 17
24 9
25 13
26 1
26 2
26 3
26 5
26 16
26 17
26 19
26 20
27 2
28 1
28 2
28 17
28 22
28 27
29 2
29 7
29 17
29 19
29 23
29 27
