instances/montreal.td
c Decomposition from Toto database
c graph6 \gBQIHDPG?G_`@PIg_I?FtIlC?IG?O????_?????GQo?C????_?y?EoG???E??O`O_AaG
s td 23 7 29
b 1 2 6 17 19 26 29
b 2 1 2 6 16 17 26 29
b 3 1 2 6 16 17 23 29
b 4 1 2 6 14 16 17 23
b 5 1 2 6 13 14 16 17
b 6 1 2 17 28 29
b 7 2 27 28 29
b 8 2 6 14 15 16 17
b 9 2 6 12 13
b 10 11 14 17 23
b 11 2 6 9 14 17
b 12 2 6 7 29
b 13 13 25
b 14 9 24
b 15 22 28
b 16 9 21
b 17 20 26
b 18 2 6 17 18
b 19 2 6 9 10
b 20 2 6 8 9
b 21 5 26
b 22 4 6 17
b 23 2 3 26
1 12
1 18
1 23
1 22
1 17
1 21
1 2
2 3
2 6
3 4
4 5
4 8
4 10
4 11
5 9
5 13
6 7
6 15
11 14
11 16
11 19
11 20
